\ This file has been generated by DOcplex
\ ENCODING=ISO-8859-1
\Problem name: Subproblem

Maximize
 obj: x23 + 2 x24 + 4 x25 + 8 x26 + 16 x27 + 32 x28 + 64 x29 + 128 x30 + 256 x31
      + 512 x32 + 1024 x33 + 2048 x34 + 4096 x35 + 8192 x36 + 16384 x37
      + 32768 x38 + 65536 x39 + x40 + 0.500000000000 x41 + 0.250000000000 x42
      + 0.125000000000 x43 + 0.062500000000 x44 + 0.031250000000 x45
      + 0.015625000000 x46 + 0.007812500000 x47 + 0.003906250000 x48
      + 0.001953125000 x49 + 0.000976562500 x50 + 0.000488281250 x51
      + 0.000244140625 x52 + 0.000122070312 x53 + 0.000061035156 x54
      + 0.000030517578 x55 + 0.000015258789 x56 - x57 - 2 x58 - 4 x59 - 8 x60
      - 16 x61 - 32 x62 - 64 x63 - 128 x64 - 256 x65 - 512 x66 - 1024 x67
      - 2048 x68 - 4096 x69 - 8192 x70 - 16384 x71 - 32768 x72 - 65536 x73 -270
Subject To
 R0: 1.033009489069 x1 + 12.145186806633 x2 + 15.775779262316 x4
     + 4.575303515862 x5 + 0.686797826472 x6 + 0.343677410093 x7
     - 0.055758513836 x8 + 8.205051307598 x9 + 9.819495658548 x10
     + 9.093290001177 x11 + 1.042240024676 x14 + 0.191841682827 x16
     + 19.149872822421 x22 >= 26.036365334230

Bounds
 0 <= x1 <= 1
 0 <= x2 <= 1
 0 <= x3 <= 1
 0 <= x4 <= 1
 0 <= x5 <= 1
 0 <= x6 <= 1
 0 <= x7 <= 1
 0 <= x8 <= 1
 0 <= x9 <= 1
 0 <= x10 <= 1
 0 <= x11 <= 1
 0 <= x12 <= 1
 0 <= x13 <= 1
 0 <= x14 <= 1
 0 <= x15 <= 1
 0 <= x16 <= 1
 0 <= x17 <= 1
 0 <= x18 <= 1
 0 <= x19 <= 1
 0 <= x20 <= 1
 0 <= x21 <= 1
 0 <= x22 <= 1
 0 <= x23 <= 1
 0 <= x24 <= 1
 0 <= x25 <= 1
 0 <= x26 <= 1
 0 <= x27 <= 1
 0 <= x28 <= 1
 0 <= x29 <= 1
 0 <= x30 <= 1
 0 <= x31 <= 1
 0 <= x32 <= 1
 0 <= x33 <= 1
 0 <= x34 <= 1
 0 <= x35 <= 1
 0 <= x36 <= 1
 0 <= x37 <= 1
 0 <= x38 <= 1
 0 <= x39 <= 1
 0 <= x40 <= 1
 0 <= x41 <= 1
 0 <= x42 <= 1
 0 <= x43 <= 1
 0 <= x44 <= 1
 0 <= x45 <= 1
 0 <= x46 <= 1
 0 <= x47 <= 1
 0 <= x48 <= 1
 0 <= x49 <= 1
 0 <= x50 <= 1
 0 <= x51 <= 1
 0 <= x52 <= 1
 0 <= x53 <= 1
 0 <= x54 <= 1
 0 <= x55 <= 1
 0 <= x56 <= 1
 0 <= x57 <= 1
 0 <= x58 <= 1
 0 <= x59 <= 1
 0 <= x60 <= 1
 0 <= x61 <= 1
 0 <= x62 <= 1
 0 <= x63 <= 1
 0 <= x64 <= 1
 0 <= x65 <= 1
 0 <= x66 <= 1
 0 <= x67 <= 1
 0 <= x68 <= 1
 0 <= x69 <= 1
 0 <= x70 <= 1
 0 <= x71 <= 1
 0 <= x72 <= 1
 0 <= x73 <= 1

Binaries
 x1 x2 x3 x4 x5 x6 x7 x8 x9 x10 x11 x12 x13 x14 x15 x16 x17 x18 x19 x20 x21 x22
 x23 x24 x25 x26 x27 x28 x29 x30 x31 x32 x33 x34 x35 x36 x37 x38 x39 x40 x41 x42
 x43 x44 x45 x46 x47 x48 x49 x50 x51 x52 x53 x54 x55 x56 x57 x58 x59 x60 x61 x62
 x63 x64 x65 x66 x67 x68 x69 x70 x71 x72 x73
End
